c strEdges: 125  randomEdges: 504 
c degrees:  1  2 
c girth: Inf max: -43.604516  
c Hgirth mixed MAXCUT instance
c generated from an undirected graph
c to solve unweighted MaxCut
p cnf 140 1258
25 91 0
-25 -91 0
124 69 0
-124 -69 0
124 108 0
-124 -108 0
87 1 0
-87 -1 0
11 89 0
-11 -89 0
11 73 0
-11 -73 0
99 2 0
-99 -2 0
99 139 0
-99 -139 0
68 109 0
-68 -109 0
104 81 0
-104 -81 0
104 69 0
-104 -69 0
23 39 0
-23 -39 0
43 139 0
-43 -139 0
43 85 0
-43 -85 0
100 62 0
-100 -62 0
100 30 0
-100 -30 0
75 61 0
-75 -61 0
75 91 0
-75 -91 0
118 119 0
-118 -119 0
118 15 0
-118 -15 0
4 133 0
-4 -133 0
4 35 0
-4 -35 0
34 60 0
-34 -60 0
107 36 0
-107 -36 0
90 112 0
-90 -112 0
90 105 0
-90 -105 0
41 56 0
-41 -56 0
41 120 0
-41 -120 0
48 57 0
-48 -57 0
48 17 0
-48 -17 0
131 73 0
-131 -73 0
131 123 0
-131 -123 0
54 77 0
-54 -77 0
54 32 0
-54 -32 0
114 101 0
-114 -101 0
114 60 0
-114 -60 0
102 97 0
-102 -97 0
102 132 0
-102 -132 0
83 129 0
-83 -129 0
83 119 0
-83 -119 0
88 30 0
-88 -30 0
18 70 0
-18 -70 0
18 116 0
-18 -116 0
86 45 0
-86 -45 0
86 7 0
-86 -7 0
13 108 0
-13 -108 0
13 136 0
-13 -136 0
8 28 0
-8 -28 0
8 39 0
-8 -39 0
19 127 0
-19 -127 0
130 46 0
-130 -46 0
130 140 0
-130 -140 0
82 44 0
-82 -44 0
82 95 0
-82 -95 0
49 136 0
-49 -136 0
49 56 0
-49 -56 0
117 6 0
-117 -6 0
117 101 0
-117 -101 0
33 123 0
-33 -123 0
33 133 0
-33 -133 0
66 138 0
-66 -138 0
12 95 0
-12 -95 0
12 74 0
-12 -74 0
76 38 0
-76 -38 0
76 14 0
-76 -14 0
121 22 0
-121 -22 0
121 9 0
-121 -9 0
94 65 0
-94 -65 0
94 6 0
-94 -6 0
67 29 0
-67 -29 0
67 40 0
-67 -40 0
27 9 0
-27 -9 0
27 98 0
-27 -98 0
55 58 0
-55 -58 0
55 63 0
-55 -63 0
51 53 0
-51 -53 0
51 58 0
-51 -58 0
71 98 0
-71 -98 0
71 65 0
-71 -65 0
31 7 0
-31 -7 0
31 57 0
-31 -57 0
20 32 0
-20 -32 0
20 53 0
-20 -53 0
47 105 0
-47 -105 0
47 137 0
-47 -137 0
24 116 0
-24 -116 0
24 97 0
-24 -97 0
26 52 0
-26 -52 0
26 1 0
-26 -1 0
84 74 0
-84 -74 0
84 38 0
-84 -38 0
78 137 0
-78 -137 0
78 36 0
-78 -36 0
111 122 0
-111 -122 0
111 134 0
-111 -134 0
3 110 0
-3 -110 0
3 129 0
-3 -129 0
106 72 0
-106 -72 0
5 132 0
-5 -132 0
5 81 0
-5 -81 0
59 134 0
-59 -134 0
59 62 0
-59 -62 0
50 85 0
-50 -85 0
50 28 0
-50 -28 0
113 63 0
-113 -63 0
113 72 0
-113 -72 0
64 80 0
-64 -80 0
64 10 0
-64 -10 0
93 10 0
-93 -10 0
93 138 0
-93 -138 0
126 120 0
-126 -120 0
16 17 0
-16 -17 0
21 35 0
-21 -35 0
125 14 0
-125 -14 0
115 92 0
-115 -92 0
115 128 0
-115 -128 0
37 15 0
-37 -15 0
37 70 0
-37 -70 0
96 140 0
-96 -140 0
96 109 0
-96 -109 0
42 103 0
-42 -103 0
135 40 0
-135 -40 0
135 127 0
-135 -127 0
79 128 0
-79 -128 0
79 46 0
-79 -46 0
66 40 0
-66 -40 0
38 53 0
-38 -53 0
66 116 0
-66 -116 0
8 108 0
-8 -108 0
51 138 0
-51 -138 0
34 62 0
-34 -62 0
64 74 0
-64 -74 0
94 91 0
-94 -91 0
18 120 0
-18 -120 0
66 93 0
-66 -93 0
65 9 0
-65 -9 0
25 140 0
-25 -140 0
107 8 0
-107 -8 0
41 30 0
-41 -30 0
59 101 0
-59 -101 0
88 13 0
-88 -13 0
51 44 0
-51 -44 0
107 39 0
-107 -39 0
78 136 0
-78 -136 0
58 122 0
-58 -122 0
125 30 0
-125 -30 0
11 85 0
-11 -85 0
113 73 0
-113 -73 0
71 138 0
-71 -138 0
55 46 0
-55 -46 0
95 74 0
-95 -74 0
125 42 0
-125 -42 0
88 42 0
-88 -42 0
86 110 0
-86 -110 0
58 116 0
-58 -116 0
26 134 0
-26 -134 0
86 37 0
-86 -37 0
99 89 0
-99 -89 0
33 36 0
-33 -36 0
24 77 0
-24 -77 0
11 44 0
-11 -44 0
3 60 0
-3 -60 0
88 109 0
-88 -109 0
51 123 0
-51 -123 0
133 123 0
-133 -123 0
55 50 0
-55 -50 0
118 39 0
-118 -39 0
41 22 0
-41 -22 0
19 20 0
-19 -20 0
130 92 0
-130 -92 0
61 103 0
-61 -103 0
113 126 0
-113 -126 0
109 103 0
-109 -103 0
16 2 0
-16 -2 0
76 61 0
-76 -61 0
109 127 0
-109 -127 0
100 122 0
-100 -122 0
43 102 0
-43 -102 0
5 98 0
-5 -98 0
111 123 0
-111 -123 0
102 77 0
-102 -77 0
21 85 0
-21 -85 0
86 112 0
-86 -112 0
58 98 0
-58 -98 0
86 67 0
-86 -67 0
42 60 0
-42 -60 0
6 52 0
-6 -52 0
114 69 0
-114 -69 0
67 97 0
-67 -97 0
66 135 0
-66 -135 0
66 45 0
-66 -45 0
37 7 0
-37 -7 0
60 56 0
-60 -56 0
31 132 0
-31 -132 0
55 126 0
-55 -126 0
5 2 0
-5 -2 0
83 64 0
-83 -64 0
8 37 0
-8 -37 0
71 15 0
-71 -15 0
78 97 0
-78 -97 0
84 132 0
-84 -132 0
86 36 0
-86 -36 0
29 134 0
-29 -134 0
110 15 0
-110 -15 0
18 46 0
-18 -46 0
19 91 0
-19 -91 0
131 62 0
-131 -62 0
41 123 0
-41 -123 0
54 83 0
-54 -83 0
45 35 0
-45 -35 0
15 103 0
-15 -103 0
23 133 0
-23 -133 0
82 63 0
-82 -63 0
9 35 0
-9 -35 0
80 128 0
-80 -128 0
126 9 0
-126 -9 0
20 40 0
-20 -40 0
48 51 0
-48 -51 0
34 115 0
-34 -115 0
55 15 0
-55 -15 0
80 40 0
-80 -40 0
66 85 0
-66 -85 0
48 105 0
-48 -105 0
42 136 0
-42 -136 0
50 17 0
-50 -17 0
93 98 0
-93 -98 0
54 22 0
-54 -22 0
26 29 0
-26 -29 0
6 140 0
-6 -140 0
36 65 0
-36 -65 0
34 9 0
-34 -9 0
99 41 0
-99 -41 0
60 57 0
-60 -57 0
7 63 0
-7 -63 0
67 85 0
-67 -85 0
30 108 0
-30 -108 0
5 139 0
-5 -139 0
117 5 0
-117 -5 0
31 101 0
-31 -101 0
48 122 0
-48 -122 0
102 16 0
-102 -16 0
83 17 0
-83 -17 0
49 14 0
-49 -14 0
16 127 0
-16 -127 0
82 69 0
-82 -69 0
135 70 0
-135 -70 0
133 17 0
-133 -17 0
124 72 0
-124 -72 0
101 32 0
-101 -32 0
68 1 0
-68 -1 0
81 140 0
-81 -140 0
33 32 0
-33 -32 0
87 50 0
-87 -50 0
69 132 0
-69 -132 0
86 84 0
-86 -84 0
91 15 0
-91 -15 0
16 98 0
-16 -98 0
5 70 0
-5 -70 0
27 140 0
-27 -140 0
115 74 0
-115 -74 0
118 60 0
-118 -60 0
54 7 0
-54 -7 0
84 70 0
-84 -70 0
104 72 0
-104 -72 0
102 69 0
-102 -69 0
4 31 0
-4 -31 0
104 66 0
-104 -66 0
12 55 0
-12 -55 0
106 110 0
-106 -110 0
90 81 0
-90 -81 0
21 115 0
-21 -115 0
20 56 0
-20 -56 0
84 46 0
-84 -46 0
99 108 0
-99 -108 0
18 129 0
-18 -129 0
41 1 0
-41 -1 0
18 57 0
-18 -57 0
75 112 0
-75 -112 0
91 120 0
-91 -120 0
53 17 0
-53 -17 0
129 14 0
-129 -14 0
18 9 0
-18 -9 0
61 137 0
-61 -137 0
139 116 0
-139 -116 0
84 39 0
-84 -39 0
55 30 0
-55 -30 0
54 132 0
-54 -132 0
112 80 0
-112 -80 0
81 22 0
-81 -22 0
87 73 0
-87 -73 0
16 52 0
-16 -52 0
121 78 0
-121 -78 0
78 79 0
-78 -79 0
45 53 0
-45 -53 0
101 10 0
-101 -10 0
104 137 0
-104 -137 0
54 45 0
-54 -45 0
4 57 0
-4 -57 0
12 60 0
-12 -60 0
2 10 0
-2 -10 0
75 27 0
-75 -27 0
36 56 0
-36 -56 0
31 40 0
-31 -40 0
45 29 0
-45 -29 0
3 63 0
-3 -63 0
8 45 0
-8 -45 0
70 98 0
-70 -98 0
113 21 0
-113 -21 0
104 88 0
-104 -88 0
39 136 0
-39 -136 0
49 65 0
-49 -65 0
82 97 0
-82 -97 0
20 42 0
-20 -42 0
124 51 0
-124 -51 0
11 37 0
-11 -37 0
74 10 0
-74 -10 0
77 58 0
-77 -58 0
9 58 0
-9 -58 0
34 53 0
-34 -53 0
12 52 0
-12 -52 0
19 12 0
-19 -12 0
108 28 0
-108 -28 0
48 3 0
-48 -3 0
124 117 0
-124 -117 0
71 40 0
-71 -40 0
66 46 0
-66 -46 0
18 55 0
-18 -55 0
48 102 0
-48 -102 0
43 36 0
-43 -36 0
4 40 0
-4 -40 0
87 113 0
-87 -113 0
107 31 0
-107 -31 0
88 6 0
-88 -6 0
125 45 0
-125 -45 0
135 120 0
-135 -120 0
124 139 0
-124 -139 0
58 52 0
-58 -52 0
30 46 0
-30 -46 0
99 118 0
-99 -118 0
67 10 0
-67 -10 0
107 20 0
-107 -20 0
78 123 0
-78 -123 0
104 111 0
-104 -111 0
106 93 0
-106 -93 0
33 127 0
-33 -127 0
49 52 0
-49 -52 0
100 27 0
-100 -27 0
12 59 0
-12 -59 0
115 30 0
-115 -30 0
62 17 0
-62 -17 0
11 58 0
-11 -58 0
48 30 0
-48 -30 0
42 97 0
-42 -97 0
4 123 0
-4 -123 0
118 131 0
-118 -131 0
66 71 0
-66 -71 0
109 57 0
-109 -57 0
8 9 0
-8 -9 0
86 14 0
-86 -14 0
25 94 0
-25 -94 0
107 30 0
-107 -30 0
67 3 0
-67 -3 0
117 95 0
-117 -95 0
91 28 0
-91 -28 0
130 67 0
-130 -67 0
74 132 0
-74 -132 0
59 115 0
-59 -115 0
73 70 0
-73 -70 0
113 53 0
-113 -53 0
22 74 0
-22 -74 0
124 44 0
-124 -44 0
86 137 0
-86 -137 0
55 36 0
-55 -36 0
117 47 0
-117 -47 0
19 137 0
-19 -137 0
41 117 0
-41 -117 0
18 38 0
-18 -38 0
64 119 0
-64 -119 0
49 73 0
-49 -73 0
121 44 0
-121 -44 0
107 71 0
-107 -71 0
130 55 0
-130 -55 0
49 80 0
-49 -80 0
106 53 0
-106 -53 0
115 138 0
-115 -138 0
76 70 0
-76 -70 0
81 17 0
-81 -17 0
138 105 0
-138 -105 0
78 3 0
-78 -3 0
1 6 0
-1 -6 0
66 129 0
-66 -129 0
98 105 0
-98 -105 0
41 125 0
-41 -125 0
83 132 0
-83 -132 0
41 57 0
-41 -57 0
59 57 0
-59 -57 0
48 8 0
-48 -8 0
11 32 0
-11 -32 0
94 40 0
-94 -40 0
118 107 0
-118 -107 0
107 80 0
-107 -80 0
90 65 0
-90 -65 0
78 57 0
-78 -57 0
60 134 0
-60 -134 0
131 51 0
-131 -51 0
48 52 0
-48 -52 0
34 26 0
-34 -26 0
43 132 0
-43 -132 0
22 110 0
-22 -110 0
99 21 0
-99 -21 0
33 6 0
-33 -6 0
96 17 0
-96 -17 0
13 16 0
-13 -16 0
3 108 0
-3 -108 0
43 66 0
-43 -66 0
20 125 0
-20 -125 0
75 12 0
-75 -12 0
31 9 0
-31 -9 0
25 64 0
-25 -64 0
79 1 0
-79 -1 0
57 52 0
-57 -52 0
4 45 0
-4 -45 0
4 24 0
-4 -24 0
50 16 0
-50 -16 0
95 35 0
-95 -35 0
51 74 0
-51 -74 0
101 65 0
-101 -65 0
109 22 0
-109 -22 0
16 79 0
-16 -79 0
57 98 0
-57 -98 0
66 17 0
-66 -17 0
108 136 0
-108 -136 0
55 9 0
-55 -9 0
2 98 0
-2 -98 0
3 106 0
-3 -106 0
88 123 0
-88 -123 0
23 53 0
-23 -53 0
97 53 0
-97 -53 0
39 95 0
-39 -95 0
36 134 0
-36 -134 0
34 106 0
-34 -106 0
107 46 0
-107 -46 0
114 102 0
-114 -102 0
43 125 0
-43 -125 0
120 128 0
-120 -128 0
75 131 0
-75 -131 0
6 10 0
-6 -10 0
28 140 0
-28 -140 0
42 92 0
-42 -92 0
70 22 0
-70 -22 0
106 109 0
-106 -109 0
99 84 0
-99 -84 0
126 138 0
-126 -138 0
115 32 0
-115 -32 0
48 111 0
-48 -111 0
66 76 0
-66 -76 0
11 140 0
-11 -140 0
121 65 0
-121 -65 0
14 103 0
-14 -103 0
115 89 0
-115 -89 0
102 6 0
-102 -6 0
18 66 0
-18 -66 0
6 17 0
-6 -17 0
104 20 0
-104 -20 0
18 58 0
-18 -58 0
99 51 0
-99 -51 0
121 70 0
-121 -70 0
137 15 0
-137 -15 0
13 59 0
-13 -59 0
64 35 0
-64 -35 0
64 61 0
-64 -61 0
111 6 0
-111 -6 0
82 132 0
-82 -132 0
41 51 0
-41 -51 0
12 138 0
-12 -138 0
137 134 0
-137 -134 0
29 122 0
-29 -122 0
70 38 0
-70 -38 0
131 114 0
-131 -114 0
25 78 0
-25 -78 0
90 19 0
-90 -19 0
101 98 0
-101 -98 0
33 121 0
-33 -121 0
42 81 0
-42 -81 0
109 53 0
-109 -53 0
112 127 0
-112 -127 0
4 13 0
-4 -13 0
18 69 0
-18 -69 0
47 127 0
-47 -127 0
107 3 0
-107 -3 0
41 40 0
-41 -40 0
33 12 0
-33 -12 0
54 26 0
-54 -26 0
41 26 0
-41 -26 0
25 81 0
-25 -81 0
78 38 0
-78 -38 0
33 64 0
-33 -64 0
9 137 0
-9 -137 0
40 128 0
-40 -128 0
66 77 0
-66 -77 0
65 14 0
-65 -14 0
48 15 0
-48 -15 0
24 119 0
-24 -119 0
65 72 0
-65 -72 0
112 105 0
-112 -105 0
19 35 0
-19 -35 0
100 94 0
-100 -94 0
13 70 0
-13 -70 0
102 80 0
-102 -80 0
68 31 0
-68 -31 0
51 28 0
-51 -28 0
107 12 0
-107 -12 0
20 39 0
-20 -39 0
108 110 0
-108 -110 0
48 140 0
-48 -140 0
75 17 0
-75 -17 0
45 103 0
-45 -103 0
99 26 0
-99 -26 0
113 62 0
-113 -62 0
8 116 0
-8 -116 0
61 29 0
-61 -29 0
64 37 0
-64 -37 0
77 53 0
-77 -53 0
72 103 0
-72 -103 0
131 33 0
-131 -33 0
89 2 0
-89 -2 0
90 132 0
-90 -132 0
33 135 0
-33 -135 0
12 136 0
-12 -136 0
53 52 0
-53 -52 0
34 36 0
-34 -36 0
77 72 0
-77 -72 0
3 92 0
-3 -92 0
68 95 0
-68 -95 0
87 95 0
-87 -95 0
13 97 0
-13 -97 0
109 116 0
-109 -116 0
66 47 0
-66 -47 0
39 120 0
-39 -120 0
20 50 0
-20 -50 0
46 65 0
-46 -65 0
88 116 0
-88 -116 0
123 85 0
-123 -85 0
88 28 0
-88 -28 0
29 72 0
-29 -72 0
31 93 0
-31 -93 0
12 127 0
-12 -127 0
4 72 0
-4 -72 0
24 109 0
-24 -109 0
9 53 0
-9 -53 0
102 89 0
-102 -89 0
83 58 0
-83 -58 0
73 65 0
-73 -65 0
3 69 0
-3 -69 0
26 123 0
-26 -123 0
48 77 0
-48 -77 0
48 60 0
-48 -60 0
56 14 0
-56 -14 0
27 123 0
-27 -123 0
69 72 0
-69 -72 0
114 17 0
-114 -17 0
119 6 0
-119 -6 0
82 60 0
-82 -60 0
39 128 0
-39 -128 0
62 97 0
-62 -97 0
11 48 0
-11 -48 0
125 101 0
-125 -101 0
18 51 0
-18 -51 0
131 110 0
-131 -110 0
68 92 0
-68 -92 0
117 63 0
-117 -63 0
7 120 0
-7 -120 0
131 129 0
-131 -129 0
118 70 0
-118 -70 0
89 35 0
-89 -35 0
27 108 0
-27 -108 0
90 73 0
-90 -73 0
76 7 0
-76 -7 0
46 10 0
-46 -10 0
87 59 0
-87 -59 0
132 35 0
-132 -35 0
34 79 0
-34 -79 0
123 105 0
-123 -105 0
3 128 0
-3 -128 0
124 1 0
-124 -1 0
130 57 0
-130 -57 0
106 115 0
-106 -115 0
19 10 0
-19 -10 0
11 83 0
-11 -83 0
49 134 0
-49 -134 0
27 105 0
-27 -105 0
4 70 0
-4 -70 0
21 61 0
-21 -61 0
33 42 0
-33 -42 0
139 77 0
-139 -77 0
124 23 0
-124 -23 0
111 44 0
-111 -44 0
113 57 0
-113 -57 0
11 69 0
-11 -69 0
89 40 0
-89 -40 0
41 102 0
-41 -102 0
42 89 0
-42 -89 0
43 121 0
-43 -121 0
83 94 0
-83 -94 0
67 110 0
-67 -110 0
137 40 0
-137 -40 0
82 1 0
-82 -1 0
75 38 0
-75 -38 0
69 7 0
-69 -7 0
11 100 0
-11 -100 0
36 103 0
-36 -103 0
130 15 0
-130 -15 0
84 1 0
-84 -1 0
82 53 0
-82 -53 0
46 134 0
-46 -134 0
18 45 0
-18 -45 0
87 115 0
-87 -115 0
73 105 0
-73 -105 0
55 6 0
-55 -6 0
82 67 0
-82 -67 0
71 50 0
-71 -50 0
60 128 0
-60 -128 0
64 45 0
-64 -45 0
11 123 0
-11 -123 0
83 63 0
-83 -63 0
57 29 0
-57 -29 0
18 28 0
-18 -28 0
16 70 0
-16 -70 0
78 140 0
-78 -140 0
